18483725
21273885
20038839
12528445
37405783
8589453
25162485
40129267
34704078
8519019
42271908
12035178
42254838
45767013
40163072
39296424
33654958
44113383
46316737
18778784
32081432
34550728
32664512
48270527
33798134
16034083
9059044
42327781
35377602
13049401
